Linux optc-04-08 4.15.0-88-generic #88-Ubuntu SMP Tue Feb 11 20:11:34 UTC 2020 x86_64 x86_64 x86_64 GNU/Linux

top - 20:55:31 up 3 days,  7:31,  0 users,  load average: 0,39, 0,83, 0,94
Tasks: 466 gesamt,   1 laufend, 236 schlafend,   0 gestoppt,   0 Zombie
%CPU(s): 15,3 be,  3,7 sy,  0,0 ni, 81,0 un,  0,0 wa,  0,0 hi,  0,0 si,  0,0 st
KiB Spch : 65916192 gesamt, 63162472 frei,   617420 belegt,  2136300 Puff/Cache
KiB Swap:  8388604 gesamt,  8252944 frei,   135660 belegt. 64726508 verfü Spch 

  PID USER      PR  NI    VIRT    RES    SHR S  %CPU %MEM     ZEIT+ BEFEHL
29020 bzfhende  20   0   52808   4352   3420 R   7,7  0,0   0:00.04 top
    1 root      20   0  233656   6188   4336 S   0,0  0,0   0:19.93 systemd
    2 root      20   0       0      0      0 S   0,0  0,0   0:00.36 kthreadd
    4 root       0 -20       0      0      0 I   0,0  0,0   0:00.00 kworker/0:+
    5 root      20   0       0      0      0 I   0,0  0,0   0:52.31 kworker/u9+
    7 root       0 -20       0      0      0 I   0,0  0,0   0:00.00 mm_percpu_+
    8 root      20   0       0      0      0 S   0,0  0,0   0:00.13 ksoftirqd/0
    9 root      20   0       0      0      0 I   0,0  0,0   0:42.46 rcu_sched

hard time limit: 00-04:10:00
hard mem limit: 38600

SLURM jobID: 6405607

@01 /nfs/OPTI/bzfhende/instances//./miplib2010_iis-cov/instances/iis-5-100-3-cov.mps.gz ===========
-----------------------------
So 8. Mär 20:55:31 CET 2020
-----------------------------
@03 1583697331
@05 7200
SCIP version 7.0.0 [precision: 8 byte] [memory: block] [mode: optimized] [LP solver: CPLEX 12.10.0.0] [GitHash: 297532de76]
Copyright (C) 2002-2020 Konrad-Zuse-Zentrum fuer Informationstechnik Berlin (ZIB)

External codes: 
  Readline 7.0         GNU library for command line editing (gnu.org/s/readline)
  CPLEX 12.10.0.0      Linear Programming Solver developed by IBM (www.cplex.com)
  CppAD 20180000.0     Algorithmic Differentiation of C++ algorithms developed by B. Bell (www.coin-or.org/CppAD)
  ZLIB 1.2.11          General purpose compression library by J. Gailly and M. Adler (zlib.net)
  GMP 6.1.2            GNU Multiple Precision Arithmetic Library developed by T. Granlund (gmplib.org)
  bliss 0.73p          Computing Graph Automorphism Groups by T. Junttila and P. Kaski (http://www.tcs.hut.fi/Software/bliss/)

user parameter file <scip.set> not found - using default parameters

SCIP> @04 1583697331
-----------------------------
So 8. Mär 20:55:31 CET 2020
-----------------------------

=ready=
